Maximize
  13 x0 - 27 x1 + 0 x2 + 36 x3 - 34 x4 - 43 x5 + 0 x6 - 16 x7 + 0 x8 - 11 x9
   + 31 x10 + 36 x11 + 0 x12 + 0 x13 + 0 x14 - 17 x15 - 11 x16 + 0 x17
   + 35 x18 - 6 x19 + 0 x20 + 34 x21 + 0 x22 + 3 x23 + 22 x24 + 0 x25
   - 29 x26 + 0 x27 + 20 x28 + 7 x29 + [ 6 x0 ^2 + 32 x0 * x1 + 32 x0 * x2
   - 68 x0 * x3 - 72 x0 * x5 - 42 x0 * x6 + 22 x0 * x7 - 58 x0 * x8
   - 86 x0 * x9 + 42 x0 * x11 - 68 x0 * x12 + 6 x0 * x15 - 96 x0 * x17
   + 86 x0 * x18 + 20 x0 * x19 + 32 x0 * x22 - 20 x0 * x23 - 52 x0 * x24
   - 64 x0 * x25 + 4 x0 * x26 + 78 x0 * x28 - 30 x1 * x2 - 52 x1 * x3
   - 94 x1 * x4 - 46 x1 * x5 + 46 x1 * x7 - 14 x1 * x8 - 26 x1 * x9
   + 22 x1 * x10 + 72 x1 * x11 + 52 x1 * x12 - 42 x1 * x13 + 82 x1 * x15
   + 88 x1 * x16 - 26 x1 * x17 - 52 x1 * x18 + 26 x1 * x19 - 22 x1 * x22
   + 90 x1 * x23 - 40 x1 * x24 - 98 x1 * x25 - 16 x1 * x26 - 84 x1 * x27
   - 44 x1 * x28 + 88 x1 * x29 + 56 x2 * x3 + 52 x2 * x4 - 76 x2 * x5
   - 64 x2 * x7 - 48 x2 * x8 + 78 x2 * x9 - 78 x2 * x10 - 28 x2 * x11
   + 70 x2 * x12 + 80 x2 * x14 + 62 x2 * x15 + 40 x2 * x17 + 22 x2 * x19
   - 16 x2 * x23 - 2 x2 * x24 + 28 x2 * x25 - 56 x2 * x27 - 80 x2 * x28
   - 58 x2 * x29 + 66 x3 * x4 - 84 x3 * x5 - 54 x3 * x8 - 90 x3 * x9
   - 68 x3 * x11 - 70 x3 * x14 - 12 x3 * x15 - 76 x3 * x16 - 14 x3 * x17
   - 80 x3 * x18 - 18 x3 * x19 + 98 x3 * x22 + 54 x3 * x24 - 80 x3 * x25
   - 40 x3 * x27 + 48 x3 * x28 - 46 x4 ^2 - 50 x4 * x5 + 44 x4 * x6
   - 24 x4 * x7 + 70 x4 * x8 - 56 x4 * x10 - 52 x4 * x12 - 22 x4 * x13
   - 62 x4 * x15 + 66 x4 * x17 + 30 x4 * x19 + 16 x4 * x20 - 4 x4 * x21
   + 24 x4 * x23 - 68 x4 * x24 - 4 x4 * x25 + 26 x4 * x27 + 70 x4 * x28
   - 10 x4 * x29 + 3 x5 ^2 + 44 x5 * x6 - 88 x5 * x7 - 10 x5 * x8
   - 16 x5 * x9 - 30 x5 * x10 - 98 x5 * x13 - 98 x5 * x14 - 34 x5 * x15
   - 70 x5 * x17 - 98 x5 * x18 - 52 x5 * x19 + 60 x5 * x20 + 38 x5 * x21
   - 98 x5 * x23 + 82 x5 * x24 + 76 x5 * x25 - 92 x5 * x28 - 6 x6 ^2
   - 2 x6 * x7 + 14 x6 * x8 + 20 x6 * x9 - 58 x6 * x10 + 4 x6 * x14
   + 30 x6 * x15 + 40 x6 * x17 - 30 x6 * x18 - 68 x6 * x19 + 22 x6 * x20
   - 8 x6 * x21 - 38 x6 * x25 + 74 x6 * x26 - 76 x6 * x27 + 18 x6 * x29
   + 47 x7 ^2 - 94 x7 * x8 + 24 x7 * x9 + 90 x7 * x12 + 74 x7 * x13
   + 28 x7 * x14 - 36 x7 * x16 + 22 x7 * x17 - 8 x7 * x18 - 94 x7 * x19
   + 30 x7 * x21 - 54 x7 * x24 - 34 x7 * x25 - 26 x7 * x26 - 30 x7 * x27
   + 74 x7 * x29 - 20 x8 ^2 - 2 x8 * x13 + 96 x8 * x14 - 28 x8 * x15
   - 90 x8 * x16 - 10 x8 * x18 + 10 x8 * x19 + 76 x8 * x28 + 44 x8 * x29
   - 35 x9 ^2 + 6 x9 * x10 - 90 x9 * x11 - 34 x9 * x13 - 94 x9 * x14
   - 74 x9 * x16 - 74 x9 * x17 + 38 x9 * x19 + 4 x9 * x20 + 36 x9 * x21
   + 72 x9 * x22 + 38 x9 * x24 + 16 x9 * x26 - 70 x9 * x27 + 66 x9 * x28
   - 2 x9 * x29 - 52 x10 * x11 + 22 x10 * x13 - 96 x10 * x16 - 68 x10 * x18
   + 54 x10 * x19 - 22 x10 * x20 + 68 x10 * x21 - 44 x10 * x23
   - 82 x10 * x24 + 82 x10 * x26 - 6 x11 ^2 + 24 x11 * x12 - 46 x11 * x14
   - 32 x11 * x15 - 6 x11 * x17 - 96 x11 * x19 - 42 x11 * x20
   - 96 x11 * x21 + 88 x11 * x22 + 48 x11 * x23 - 20 x11 * x24
   - 40 x11 * x25 - 42 x11 * x28 + 23 x12 ^2 - 18 x12 * x13 + 78 x12 * x16
   - 74 x12 * x17 - 16 x12 * x20 - 6 x12 * x21 - 36 x12 * x22
   + 58 x12 * x23 + 20 x12 * x25 - 58 x12 * x27 + 34 x13 ^2 - 62 x13 * x14
   - 74 x13 * x15 - 98 x13 * x16 + 22 x13 * x17 + 24 x13 * x18
   + 16 x13 * x19 + 88 x13 * x20 - 88 x13 * x21 - 54 x13 * x22
   + 22 x13 * x25 + 54 x13 * x27 + 9 x14 ^2 + 76 x14 * x16 - 20 x14 * x17
   - 74 x14 * x18 + 50 x14 * x19 + 82 x14 * x20 + 16 x14 * x21
   - 2 x14 * x22 + 36 x14 * x26 - 42 x14 * x29 + 56 x15 * x16 + 2 x15 * x18
   - 28 x15 * x19 + 18 x15 * x20 + 88 x15 * x21 - 34 x15 * x22
   - 12 x15 * x23 - 40 x15 * x25 + 6 x15 * x27 - 98 x15 * x29 + 40 x16 ^2
   + 44 x16 * x18 - 94 x16 * x19 - 4 x16 * x21 - 82 x16 * x22
   - 32 x16 * x23 + 84 x16 * x25 + 76 x16 * x28 + 12 x16 * x29 + 43 x17 ^2
   - 32 x17 * x18 + 46 x17 * x21 + 40 x17 * x22 - 62 x17 * x24
   - 2 x17 * x25 + 32 x17 * x28 - 2 x18 ^2 - 12 x18 * x20 - 28 x18 * x22
   - 56 x18 * x23 - 74 x18 * x25 - 28 x18 * x26 + 4 x18 * x27
   - 80 x18 * x29 + 15 x19 ^2 + 90 x19 * x20 + 98 x19 * x21 + 80 x19 * x22
   + 24 x19 * x24 - 32 x19 * x25 - 16 x19 * x26 - 20 x19 * x27
   + 82 x19 * x29 - 72 x20 * x21 + 38 x20 * x25 + 32 x20 * x26
   + 58 x20 * x28 + 28 x20 * x29 + 13 x21 ^2 - 4 x21 * x22 + 22 x21 * x23
   - 20 x21 * x24 - 34 x21 * x25 - 34 x21 * x26 - 16 x21 * x28
   - 32 x21 * x29 - 8 x22 * x24 + 36 x22 * x27 - 92 x22 * x28
   + 40 x22 * x29 + 39 x23 ^2 - 24 x23 * x24 - 42 x23 * x25 - 70 x23 * x26
   + 24 x23 * x27 - 16 x24 ^2 + 84 x24 * x25 - 50 x24 * x27 + 14 x24 * x28
   - 70 x24 * x29 + 40 x25 ^2 - 80 x25 * x26 + 74 x25 * x27 - 86 x25 * x28
   - 43 x26 ^2 + 52 x26 * x27 + 68 x26 * x28 - 34 x26 * x29 + 12 x27 * x28
   - 34 x27 * x29 - 54 x28 * x29 ] / 2 
Subject To
Bounds
 x0 <= 1
 x1 <= 1
 x2 <= 1
 x3 <= 1
 x4 <= 1
 x5 <= 1
 x6 <= 1
 x7 <= 1
 x8 <= 1
 x9 <= 1
 x10 <= 1
 x11 <= 1
 x12 <= 1
 x13 <= 1
 x14 <= 1
 x15 <= 1
 x16 <= 1
 x17 <= 1
 x18 <= 1
 x19 <= 1
 x20 <= 1
 x21 <= 1
 x22 <= 1
 x23 <= 1
 x24 <= 1
 x25 <= 1
 x26 <= 1
 x27 <= 1
 x28 <= 1
 x29 <= 1
End
